(set-info :source |printed by MathSAT|)
(declare-fun invalid_mo () Int)
(declare-fun call_moesi.exclusive_mo () Int)
(declare-fun param_etat_mo4 () Bool)
(declare-fun call_moesi.garde_mo3 () Bool)
(declare-fun call_moesi.ite33 () Int)
(declare-fun call_moesi.ite22 () Int)
(declare-fun call_moesi.invalid_mo () Int)
(declare-fun call_moesi.erreur_mo () Bool)
(declare-fun call_moesi.ite32 () Int)
(declare-fun call_moesi.ite24 () Int)
(declare-fun call_moesi.ite8 () Int)
(declare-fun call_moesi.ite6 () Int)
(declare-fun call_moesi.flby4 () Int)
(declare-fun param_etat_mo2 () Bool)
(declare-fun call_moesi.shared_mo () Int)
(declare-fun call_Sofar.Sofar () Bool)
(declare-fun call_moesi.flby6 () Int)
(declare-fun call_moesi.ite19 () Int)
(declare-fun call_moesi.flby () Bool)
(declare-fun call_moesi.ite26 () Int)
(declare-fun call_moesi.ite12 () Int)
(declare-fun modified_mo () Int)
(declare-fun shared_mo () Int)
(declare-fun call_moesi.ite34 () Int)
(declare-fun param_etat_mo1 () Bool)
(declare-fun call_moesi.ite3 () Int)
(declare-fun call_moesi.garde_mo4 () Bool)
(declare-fun call_moesi.flby5 () Int)
(declare-fun call_moesi.ite5 () Int)
(declare-fun call_moesi.ite28 () Int)
(declare-fun owned_mo () Int)
(declare-fun call_moesi.ite16 () Int)
(declare-fun call_moesi.garde_mo1 () Bool)
(declare-fun call_moesi.ite20 () Int)
(declare-fun call_moesi.ite2 () Int)
(declare-fun call_moesi.ite17 () Int)
(declare-fun call_moesi.ite10 () Int)
(declare-fun call_moesi.ite9 () Int)
(declare-fun call_moesi.ite21 () Int)
(declare-fun call_Sofar.flby () Bool)
(declare-fun call_moesi.ite27 () Int)
(declare-fun exclusive_mo () Int)
(declare-fun param_etat_mo3 () Bool)
(declare-fun call_moesi.ite14 () Int)
(declare-fun call_moesi.ite31 () Int)
(declare-fun call_excludes4.excludes () Bool)
(declare-fun erreur_mo () Bool)
(declare-fun call_moesi.modified_mo () Int)
(declare-fun call_moesi.ite18 () Int)
(declare-fun call_moesi.ite () Int)
(declare-fun param_init_invalid_mo () Int)
(declare-fun call_moesi.ite13 () Int)
(declare-fun call_moesi.owned_mo () Int)
(declare-fun call_moesi.ite7 () Int)
(declare-fun call_moesi.ite11 () Int)
(declare-fun call_moesi.flby2 () Int)
(declare-fun call_moesi.ite29 () Int)
(declare-fun call_moesi.ite25 () Int)
(declare-fun call_moesi.ite15 () Int)
(declare-fun _OK_ () Bool)
(declare-fun call_moesi.ite30 () Int)
(declare-fun call_moesi.ite4 () Int)
(declare-fun call_moesi.flby3 () Int)
(declare-fun call_moesi.ite23 () Int)
(define-fun .def_899 () Bool (= call_Sofar.flby call_Sofar.Sofar))
(define-fun .def_894 () Bool (and param_etat_mo4 param_etat_mo3))
(define-fun .def_892 () Bool (and param_etat_mo4 param_etat_mo2))
(define-fun .def_890 () Bool (and param_etat_mo2 param_etat_mo3))
(define-fun .def_888 () Bool (and param_etat_mo4 param_etat_mo1))
(define-fun .def_886 () Bool (and param_etat_mo1 param_etat_mo3))
(define-fun .def_885 () Bool (and param_etat_mo2 param_etat_mo1))
(define-fun .def_887 () Bool (or .def_885 .def_886))
(define-fun .def_889 () Bool (or .def_887 .def_888))
(define-fun .def_891 () Bool (or .def_889 .def_890))
(define-fun .def_893 () Bool (or .def_891 .def_892))
(define-fun .def_895 () Bool (or .def_893 .def_894))
(define-fun .def_896 () Bool (not .def_895))
(define-fun .def_897 () Bool (= call_excludes4.excludes .def_896))
(define-fun .def_883 () Bool (= call_moesi.flby call_moesi.erreur_mo))
(define-fun .def_881 () Bool (= call_moesi.flby6 call_moesi.owned_mo))
(define-fun .def_879 () Bool (= call_moesi.flby5 call_moesi.invalid_mo))
(define-fun .def_877 () Bool (= call_moesi.flby4 call_moesi.shared_mo))
(define-fun .def_875 () Bool (= call_moesi.flby3 call_moesi.exclusive_mo))
(define-fun .def_873 () Bool (= call_moesi.flby2 call_moesi.modified_mo))
(define-fun .def_871 () Bool (= erreur_mo call_moesi.erreur_mo))
(define-fun .def_868 () Bool (= owned_mo call_moesi.owned_mo))
(define-fun .def_864 () Bool (= invalid_mo call_moesi.invalid_mo))
(define-fun .def_860 () Bool (= shared_mo call_moesi.shared_mo))
(define-fun .def_856 () Bool (= exclusive_mo call_moesi.exclusive_mo))
(define-fun .def_852 () Bool (= modified_mo call_moesi.modified_mo))
(define-fun .def_846 () Bool (not erreur_mo))
(define-fun .def_844 () Bool (not call_Sofar.Sofar))
(define-fun .def_847 () Bool (or .def_844 .def_846))
(define-fun .def_848 () Bool (= _OK_ .def_847))
(define-fun .def_838 () Bool (= call_moesi.ite32 call_moesi.ite33))
(define-fun .def_839 () Bool (or param_etat_mo3 .def_838))
(define-fun .def_835 () Bool (= call_moesi.ite30 call_moesi.ite33))
(define-fun .def_813 () Bool (not param_etat_mo3))
(define-fun .def_836 () Bool (or .def_813 .def_835))
(define-fun .def_832 () Bool (= call_moesi.ite26 call_moesi.ite27))
(define-fun .def_833 () Bool (or param_etat_mo3 .def_832))
(define-fun .def_829 () Bool (= call_moesi.ite27 call_moesi.ite24))
(define-fun .def_830 () Bool (or .def_813 .def_829))
(define-fun .def_825 () Bool (= call_moesi.ite20 call_moesi.ite21))
(define-fun .def_826 () Bool (or param_etat_mo3 .def_825))
(define-fun .def_822 () Bool (= call_moesi.ite18 call_moesi.ite21))
(define-fun .def_823 () Bool (or .def_813 .def_822))
(define-fun .def_819 () Bool (= call_moesi.ite13 call_moesi.ite14))
(define-fun .def_820 () Bool (or param_etat_mo3 .def_819))
(define-fun .def_816 () Bool (= call_moesi.ite11 call_moesi.ite14))
(define-fun .def_817 () Bool (or .def_813 .def_816))
(define-fun .def_812 () Bool (= call_moesi.ite3 call_moesi.ite6))
(define-fun .def_814 () Bool (or .def_812 .def_813))
(define-fun .def_809 () Bool (= call_moesi.ite5 call_moesi.ite6))
(define-fun .def_811 () Bool (or .def_809 param_etat_mo3))
(define-fun .def_815 () Bool (and .def_811 .def_814))
(define-fun .def_818 () Bool (and .def_815 .def_817))
(define-fun .def_821 () Bool (and .def_818 .def_820))
(define-fun .def_824 () Bool (and .def_821 .def_823))
(define-fun .def_827 () Bool (and .def_824 .def_826))
(define-fun .def_831 () Bool (and .def_827 .def_830))
(define-fun .def_834 () Bool (and .def_831 .def_833))
(define-fun .def_837 () Bool (and .def_834 .def_836))
(define-fun .def_840 () Bool (and .def_837 .def_839))
(define-fun .def_805 () Bool (= call_moesi.ite34 call_moesi.ite33))
(define-fun .def_806 () Bool (or param_etat_mo1 .def_805))
(define-fun .def_801 () Bool (= call_moesi.ite29 call_moesi.ite34))
(define-fun .def_771 () Bool (not param_etat_mo1))
(define-fun .def_802 () Bool (or .def_771 .def_801))
(define-fun .def_796 () Bool (= call_moesi.ite28 call_moesi.ite27))
(define-fun .def_797 () Bool (or param_etat_mo1 .def_796))
(define-fun .def_792 () Bool (= call_moesi.ite23 call_moesi.ite28))
(define-fun .def_793 () Bool (or .def_771 .def_792))
(define-fun .def_787 () Bool (= call_moesi.ite22 call_moesi.ite21))
(define-fun .def_788 () Bool (or param_etat_mo1 .def_787))
(define-fun .def_783 () Bool (= call_moesi.ite17 call_moesi.ite22))
(define-fun .def_784 () Bool (or .def_771 .def_783))
(define-fun .def_778 () Bool (= call_moesi.ite15 call_moesi.ite16))
(define-fun .def_779 () Bool (or param_etat_mo1 .def_778))
(define-fun .def_775 () Bool (= call_moesi.ite9 call_moesi.ite16))
(define-fun .def_776 () Bool (or .def_771 .def_775))
(define-fun .def_770 () Bool (= call_moesi.ite call_moesi.ite8))
(define-fun .def_772 () Bool (or .def_770 .def_771))
(define-fun .def_767 () Bool (= call_moesi.ite7 call_moesi.ite8))
(define-fun .def_769 () Bool (or .def_767 param_etat_mo1))
(define-fun .def_773 () Bool (and .def_769 .def_772))
(define-fun .def_777 () Bool (and .def_773 .def_776))
(define-fun .def_780 () Bool (and .def_777 .def_779))
(define-fun .def_785 () Bool (and .def_780 .def_784))
(define-fun .def_789 () Bool (and .def_785 .def_788))
(define-fun .def_794 () Bool (and .def_789 .def_793))
(define-fun .def_798 () Bool (and .def_794 .def_797))
(define-fun .def_803 () Bool (and .def_798 .def_802))
(define-fun .def_807 () Bool (and .def_803 .def_806))
(define-fun .def_763 () Bool (= call_moesi.ite15 call_moesi.ite14))
(define-fun .def_764 () Bool (or param_etat_mo2 .def_763))
(define-fun .def_759 () Bool (= call_moesi.ite10 call_moesi.ite15))
(define-fun .def_754 () Bool (not param_etat_mo2))
(define-fun .def_760 () Bool (or .def_754 .def_759))
(define-fun .def_753 () Bool (= call_moesi.ite7 call_moesi.ite2))
(define-fun .def_755 () Bool (or .def_753 .def_754))
(define-fun .def_749 () Bool (= call_moesi.ite7 call_moesi.ite6))
(define-fun .def_751 () Bool (or .def_749 param_etat_mo2))
(define-fun .def_756 () Bool (and .def_751 .def_755))
(define-fun .def_761 () Bool (and .def_756 .def_760))
(define-fun .def_765 () Bool (and .def_761 .def_764))
(define-fun .def_808 () Bool (and .def_765 .def_807))
(define-fun .def_841 () Bool (and .def_808 .def_840))
(define-fun .def_849 () Bool (and .def_841 .def_848))
(define-fun .def_853 () Bool (and .def_849 .def_852))
(define-fun .def_857 () Bool (and .def_853 .def_856))
(define-fun .def_861 () Bool (and .def_857 .def_860))
(define-fun .def_865 () Bool (and .def_861 .def_864))
(define-fun .def_869 () Bool (and .def_865 .def_868))
(define-fun .def_872 () Bool (and .def_869 .def_871))
(define-fun .def_874 () Bool (and .def_872 .def_873))
(define-fun .def_876 () Bool (and .def_874 .def_875))
(define-fun .def_878 () Bool (and .def_876 .def_877))
(define-fun .def_880 () Bool (and .def_878 .def_879))
(define-fun .def_882 () Bool (and .def_880 .def_881))
(define-fun .def_884 () Bool (and .def_882 .def_883))
(define-fun .def_898 () Bool (and .def_884 .def_897))
(define-fun .def_900 () Bool (and .def_898 .def_899))
(define-fun .def_740 () Bool (<= param_init_invalid_mo 0))
(define-fun .def_741 () Bool (not .def_740))
(define-fun .def_743 () Bool (and .def_741 call_excludes4.excludes))
(define-fun .def_745 () Bool (= .def_743 call_Sofar.flby))
(define-fun .def_738 () Bool (= call_moesi.flby6 0))
(define-fun .def_735 () Bool (= param_init_invalid_mo call_moesi.flby5))
(define-fun .def_731 () Bool (= call_moesi.flby4 0))
(define-fun .def_728 () Bool (= call_moesi.flby3 0))
(define-fun .def_725 () Bool (= call_moesi.flby2 0))
(define-fun .def_722 () Bool (not call_moesi.flby))
(define-fun .def_717 () Bool (= call_moesi.ite31 0))
(define-fun .def_709 () Bool (not call_moesi.garde_mo4))
(define-fun .def_718 () Bool (or .def_709 .def_717))
(define-fun .def_714 () Bool (= call_moesi.ite19 0))
(define-fun .def_715 () Bool (or .def_709 .def_714))
(define-fun .def_711 () Bool (= call_moesi.ite4 0))
(define-fun .def_712 () Bool (or .def_709 .def_711))
(define-fun .def_707 () Bool (= call_moesi.ite12 1))
(define-fun .def_710 () Bool (or .def_707 .def_709))
(define-fun .def_713 () Bool (and .def_710 .def_712))
(define-fun .def_716 () Bool (and .def_713 .def_715))
(define-fun .def_719 () Bool (and .def_716 .def_718))
(define-fun .def_703 () Bool (= call_moesi.ite30 0))
(define-fun .def_692 () Bool (not call_moesi.garde_mo3))
(define-fun .def_704 () Bool (or .def_692 .def_703))
(define-fun .def_699 () Bool (= call_moesi.ite18 0))
(define-fun .def_700 () Bool (or .def_692 .def_699))
(define-fun .def_695 () Bool (= call_moesi.ite3 0))
(define-fun .def_696 () Bool (or .def_692 .def_695))
(define-fun .def_690 () Bool (= call_moesi.ite11 1))
(define-fun .def_693 () Bool (or .def_690 .def_692))
(define-fun .def_697 () Bool (and .def_693 .def_696))
(define-fun .def_701 () Bool (and .def_697 .def_700))
(define-fun .def_705 () Bool (and .def_701 .def_704))
(define-fun .def_685 () Bool (= call_moesi.ite 0))
(define-fun .def_682 () Bool (not call_moesi.garde_mo1))
(define-fun .def_686 () Bool (or .def_682 .def_685))
(define-fun .def_680 () Bool (= call_moesi.ite9 0))
(define-fun .def_683 () Bool (or .def_680 .def_682))
(define-fun .def_687 () Bool (and .def_683 .def_686))
(define-fun .def_676 () Bool (= call_moesi.ite31 call_moesi.ite32))
(define-fun .def_657 () Bool (not param_etat_mo4))
(define-fun .def_677 () Bool (or .def_657 .def_676))
(define-fun .def_671 () Bool (= call_moesi.ite25 call_moesi.ite26))
(define-fun .def_672 () Bool (or .def_657 .def_671))
(define-fun .def_666 () Bool (= call_moesi.ite19 call_moesi.ite20))
(define-fun .def_667 () Bool (or .def_657 .def_666))
(define-fun .def_661 () Bool (= call_moesi.ite4 call_moesi.ite5))
(define-fun .def_662 () Bool (or .def_657 .def_661))
(define-fun .def_655 () Bool (= call_moesi.ite12 call_moesi.ite13))
(define-fun .def_658 () Bool (or .def_655 .def_657))
(define-fun .def_663 () Bool (and .def_658 .def_662))
(define-fun .def_668 () Bool (and .def_663 .def_667))
(define-fun .def_673 () Bool (and .def_668 .def_672))
(define-fun .def_678 () Bool (and .def_673 .def_677))
(define-fun .def_688 () Bool (and .def_678 .def_687))
(define-fun .def_706 () Bool (and .def_688 .def_705))
(define-fun .def_720 () Bool (and .def_706 .def_719))
(define-fun .def_723 () Bool (and .def_720 .def_722))
(define-fun .def_726 () Bool (and .def_723 .def_725))
(define-fun .def_729 () Bool (and .def_726 .def_728))
(define-fun .def_732 () Bool (and .def_729 .def_731))
(define-fun .def_736 () Bool (and .def_732 .def_735))
(define-fun .def_739 () Bool (and .def_736 .def_738))
(define-fun .def_746 () Bool (and .def_739 .def_745))
(define-fun .def_901 () Bool (and .def_746 .def_900))
(assert .def_901)
